70 713
1 16 47 37 58 50 51 56 65 64 11 67 48 54 62 39 25 45 61 40 46 27 9 68 44 30 20 14 28 55 49 26 8 3 32 7 2 19 24 15 57 35 69 31 70 29 13 53 5 10 52 60 33 12 21 34 17 43 41 6 42 18 4 66 22 63 59 38 23 36 
